
Gurobi 9.1.2 (win64, Python) logging started Wed May 12 03:03:02 2021

Academic license - for non-commercial use only - expires 2021-07-11
Using license file C:\Users\giulu\gurobi.lic
Set parameter LogFile to value gurobi.log
